presolving:
(round 1, fast)       0 del vars, 0 del conss, 0 add conss, 42120 chg bounds, 0 chg sides, 42120 chg coeffs, 0 upgd conss, 0 impls, 0 clqs
   (0.6s) running MILP presolver
   (0.8s) MILP presolver found nothing
(round 2, exhaustive) 0 del vars, 0 del conss, 0 add conss, 42120 chg bounds, 0 chg sides, 42120 chg coeffs, 42120 upgd conss, 0 impls, 0 clqs
   (2.2s) probing: 51/78 (65.4%) - 0 fixings, 0 aggregations, 0 implications, 0 bound changes
   (2.2s) probing aborted: 50/50 successive totally useless probings
   (2.3s) symmetry computation started: requiring (bin +, int -, cont +), (fixed: bin -, int +, cont -)
   (2.5s) no symmetry present
presolving (3 rounds: 3 fast, 2 medium, 2 exhaustive):
 0 deleted vars, 0 deleted constraints, 0 added constraints, 42120 tightened bounds, 0 added holes, 0 changed sides, 42120 changed coefficients
 42120 implications, 0 cliques
presolved problem has 42198 variables (78 bin, 0 int, 0 impl, 42120 cont) and 42738 constraints
  42120 constraints of type <varbound>
    618 constraints of type <linear>
Presolving Time: 2.36

 time | node  | left  |LP iter|LP it/n|mem/heur|mdpt |vars |cons |rows |cuts |sepa|confs|strbr|  dualbound   | primalbound  |  gap   | compl. 
p 3.1s|     1 |     0 |   540 |     - |   locks|   0 |  42k|  42k|  42k|   0 |  0 |   0 |   0 | 0.000000e+00 | 2.112740e+05 |    Inf | unknown
  5.1s|     1 |     0 |  3586 |     - |   420M |   0 |  42k|  42k|  42k|   0 |  0 |   0 |   0 | 2.093985e+05 | 2.112740e+05 |   0.90%| unknown
r 5.1s|     1 |     0 |  3586 |     - |simplero|   0 |  42k|  42k|  42k|   0 |  0 |   0 |   0 | 2.093985e+05 | 2.108045e+05 |   0.67%| unknown
r 5.2s|     1 |     0 |  3586 |     - |shifting|   0 |  42k|  42k|  42k|   0 |  0 |   0 |   0 | 2.093985e+05 | 2.107137e+05 |   0.63%| unknown
  5.8s|     1 |     0 |  3654 |     - |   438M |   0 |  42k|  42k|  42k|   1 |  1 |   0 |   0 | 2.094008e+05 | 2.107137e+05 |   0.63%| unknown
  6.5s|     1 |     0 |  3869 |     - |   445M |   0 |  42k|  42k|  42k|   2 |  2 |   0 |   0 | 2.094031e+05 | 2.107137e+05 |   0.63%| unknown
  7.0s|     1 |     0 |  3948 |     - |   456M |   0 |  42k|  42k|  42k|   3 |  3 |   0 |   0 | 2.094035e+05 | 2.107137e+05 |   0.63%| unknown
r 7.1s|     1 |     0 |  3948 |     - |shifting|   0 |  42k|  42k|  42k|   3 |  3 |   0 |   0 | 2.094035e+05 | 2.107063e+05 |   0.62%| unknown
  7.5s|     1 |     0 |  4063 |     - |   465M |   0 |  42k|  42k|  42k|   4 |  4 |   0 |   0 | 2.094038e+05 | 2.107063e+05 |   0.62%| unknown
r 7.7s|     1 |     0 |  4063 |     - |shifting|   0 |  42k|  42k|  42k|   4 |  4 |   0 |   0 | 2.094038e+05 | 2.106992e+05 |   0.62%| unknown
  8.4s|     1 |     0 |  4251 |     - |   477M |   0 |  42k|  42k|  42k|   5 |  5 |   0 |   0 | 2.094042e+05 | 2.106992e+05 |   0.62%| unknown
  8.8s|     1 |     0 |  4330 |     - |   483M |   0 |  42k|  42k|  42k|   6 |  6 |   0 |   0 | 2.094044e+05 | 2.106992e+05 |   0.62%| unknown
r 8.9s|     1 |     0 |  4330 |     - |simplero|   0 |  42k|  42k|  42k|   6 |  6 |   0 |   0 | 2.094044e+05 | 2.106364e+05 |   0.59%| unknown
r 9.0s|     1 |     0 |  4330 |     - |shifting|   0 |  42k|  42k|  42k|   6 |  6 |   0 |   0 | 2.094044e+05 | 2.105461e+05 |   0.55%| unknown
  9.3s|     1 |     0 |  4360 |     - |   488M |   0 |  42k|  42k|  42k|   7 |  7 |   0 |   0 | 2.094044e+05 | 2.105461e+05 |   0.55%| unknown
 time | node  | left  |LP iter|LP it/n|mem/heur|mdpt |vars |cons |rows |cuts |sepa|confs|strbr|  dualbound   | primalbound  |  gap   | compl. 
 10.0s|     1 |     0 |  4404 |     - |   494M |   0 |  42k|  42k|  42k|   9 |  8 |   0 |   0 | 2.094045e+05 | 2.105461e+05 |   0.55%| unknown
 10.7s|     1 |     0 |  4407 |     - |   499M |   0 |  42k|  42k|  42k|  10 |  9 |   0 |   0 | 2.094045e+05 | 2.105461e+05 |   0.55%| unknown
 11.4s|     1 |     0 |  4422 |     - |   504M |   0 |  42k|  42k|  42k|  11 | 10 |   0 |   0 | 2.094045e+05 | 2.105461e+05 |   0.55%| unknown
 12.4s|     1 |     0 |  4441 |     - |   509M |   0 |  42k|  42k|  42k|  16 | 11 |   0 |   0 | 2.094046e+05 | 2.105461e+05 |   0.55%| unknown
r12.9s|     1 |     0 |  4868 |     - |intshift|   0 |  42k|  42k|  42k|  16 | 11 |   0 |   0 | 2.094046e+05 | 2.099960e+05 |   0.28%| unknown
d13.4s|     1 |     0 |  5202 |     - |farkasdi|   0 |  42k|  42k|  42k|   0 | 11 |   0 |   0 | 2.094046e+05 | 2.099329e+05 |   0.25%| unknown
d13.5s|     1 |     0 |  5235 |     - |farkasdi|   0 |  42k|  42k|  42k|   0 | 11 |   0 |   0 | 2.094046e+05 | 2.094100e+05 |   0.00%| unknown
 14.4s|     1 |     0 |  5235 |     - |   517M |   0 |  42k|  42k|  42k|  16 | 11 |   0 |   0 | 2.094046e+05 | 2.094100e+05 |   0.00%| unknown
 14.6s|     1 |     0 |  5235 |     - |   521M |   0 |  42k|  42k|  42k|  16 | 11 |   0 |   0 | 2.094046e+05 | 2.094100e+05 |   0.00%| unknown
 15.0s|     1 |     0 |  5248 |     - |   525M |   0 |  42k|  42k|  38k|  18 | 12 |   0 |   0 | 2.094046e+05 | 2.094100e+05 |   0.00%| unknown
(run 1, node 1) restarting after 8 global fixings of integer variables

(restart) converted 18 cuts from the global cut pool into linear constraints

presolving:
(round 1, fast)       4328 del vars, 0 del conss, 0 add conss, 0 chg bounds, 0 chg sides, 0 chg coeffs, 0 upgd conss, 42120 impls, 0 clqs
presolving (2 rounds: 2 fast, 1 medium, 1 exhaustive):
 4328 deleted vars, 0 deleted constraints, 0 added constraints, 0 tightened bounds, 0 added holes, 0 changed sides, 0 changed coefficients
 42120 implications, 0 cliques
presolved problem has 37870 variables (70 bin, 0 int, 0 impl, 37800 cont) and 38428 constraints
  37800 constraints of type <varbound>
    628 constraints of type <linear>
Presolving Time: 2.85
transformed 25/26 original solutions to the transformed problem space

 time | node  | left  |LP iter|LP it/n|mem/heur|mdpt |vars |cons |rows |cuts |sepa|confs|strbr|  dualbound   | primalbound  |  gap   | compl. 
 19.0s|     1 |     0 |  9136 |     - |   552M |   0 |  37k|  38k|  38k|   0 |  0 |   0 |   0 | 2.094046e+05 | 2.094100e+05 |   0.00%| unknown
 19.6s|     1 |     0 |  9139 |     - |   559M |   0 |  37k|  38k|  38k|   1 |  1 |   0 |   0 | 2.094046e+05 | 2.094100e+05 |   0.00%| unknown
 20.6s|     1 |     0 |  9141 |     - |   563M |   0 |  37k|  38k|  38k|   2 |  2 |   0 |   0 | 2.094046e+05 | 2.094100e+05 |   0.00%| unknown
 22.0s|     1 |     0 |  9152 |     - |   567M |   0 |  37k|  38k|  38k|   3 |  4 |   0 |   0 | 2.094046e+05 | 2.094100e+05 |   0.00%| unknown
 23.1s|     1 |     0 |  9154 |     - |   571M |   0 |  37k|  38k|  38k|   4 |  5 |   0 |   0 | 2.094046e+05 | 2.094100e+05 |   0.00%| unknown
 23.9s|     1 |     0 |  9155 |     - |   577M |   0 |  37k|  38k|  38k|   5 |  6 |   0 |   0 | 2.094046e+05 | 2.094100e+05 |   0.00%| unknown
 24.8s|     1 |     0 |  9161 |     - |   581M |   0 |  37k|  38k|  38k|   6 |  7 |   0 |   0 | 2.094046e+05 | 2.094100e+05 |   0.00%| unknown
 30.4s|     1 |     0 | 10505 |     - |   594M |   0 |  37k|  37k|  38k|   6 |  9 | 214k|   1 | 2.094092e+05 | 2.094100e+05 |   0.00%| unknown
 30.5s|     1 |     0 | 10505 |     - |   595M |   0 |  37k|  37k|  37k|   6 |  9 | 214k|   1 | 2.094092e+05 | 2.094100e+05 |   0.00%| unknown
 31.1s|     1 |     0 | 10531 |     - |   598M |   0 |  37k|  37k|  36k|   7 | 10 | 214k|   1 | 2.094093e+05 | 2.094100e+05 |   0.00%| unknown
 31.6s|     1 |     0 | 10542 |     - |   602M |   0 |  37k|  36k|  36k|   7 | 11 | 249k|   6 | 2.094100e+05 | 2.094100e+05 |   0.00%| unknown

SCIP Status        : problem is solved [optimal solution found]
Solving Time (sec) : 31.62
Solving Nodes      : 1 (total of 2 nodes in 2 runs)
Primal Bound       : +2.09410000000000e+05 (38 solutions)
Dual Bound         : +2.09410000000000e+05
Gap                : 0.00 %
Solve Status: optimal
Solve Time: 31.66 seconds
Objective Value: 209410.00
